NAME : mar10_100_2
COMMENT : Data set with 10 points
COMMENT : CIn-UFPE
COMMENT : Contributed by Marcelo Lacerda
TYPE : TSP
DIMENSION : 10
EDGE_WEIGHT_TYPE : EUC_2D
NODE_COORD_SECTION
1 64 33
2 43 28
3 64 12
4 58 41
5 32 71
6 87 2
7 22 1
8 32 59
9 82 81
10 28 8
EOF
